(set-logic QF_S)
(declare-fun x () String)
(declare-fun y () String)
(declare-fun z () Int)
(assert (not (= (str.replace "" (str.replace y x "") y) (str.replace "" (str.replace x y "") x))))
(check-sat)
